p edge 39 170
e 7 1
e 8 1
e 11 1
e 12 1
e 13 1
e 22 1
e 23 1
e 34 1
e 35 1
e 37 1
e 39 1
e 7 2
e 8 2
e 9 2
e 11 2
e 12 2
e 13 2
e 22 2
e 23 2
e 35 2
e 36 2
e 39 2
e 14 3
e 15 3
e 16 3
e 17 3
e 18 3
e 36 3
e 39 3
e 17 4
e 36 4
e 37 4
e 39 4
e 6 5
e 34 5
e 35 5
e 39 5
e 7 6
e 35 6
e 39 6
e 8 7
e 9 7
e 11 7
e 12 7
e 13 7
e 35 7
e 39 7
e 9 8
e 10 8
e 20 8
e 21 8
e 22 8
e 23 8
e 24 8
e 35 8
e 38 8
e 39 8
e 10 9
e 35 9
e 36 9
e 39 9
e 35 10
e 36 10
e 39 10
e 19 11
e 35 11
e 36 11
e 39 11
e 19 12
e 26 12
e 35 12
e 36 12
e 38 12
e 39 12
e 35 13
e 36 13
e 38 13
e 39 13
e 25 14
e 26 14
e 27 14
e 28 14
e 29 14
e 36 14
e 39 14
e 19 15
e 25 15
e 26 15
e 27 15
e 28 15
e 29 15
e 36 15
e 39 15
e 19 16
e 27 16
e 36 16
e 39 16
e 36 17
e 39 17
e 19 18
e 25 18
e 26 18
e 27 18
e 29 18
e 32 18
e 36 18
e 39 18
e 33 19
e 36 19
e 38 19
e 39 19
e 36 20
e 38 20
e 39 20
e 33 21
e 36 21
e 38 21
e 39 21
e 27 22
e 28 22
e 30 22
e 31 22
e 32 22
e 33 22
e 35 22
e 36 22
e 38 22
e 39 22
e 30 23
e 32 23
e 33 23
e 35 23
e 36 23
e 38 23
e 39 23
e 36 24
e 38 24
e 39 24
e 36 25
e 38 25
e 39 25
e 36 26
e 38 26
e 39 26
e 30 27
e 36 27
e 38 27
e 39 27
e 36 28
e 38 28
e 39 28
e 36 29
e 38 29
e 39 29
e 36 30
e 38 30
e 39 30
e 32 31
e 36 31
e 38 31
e 39 31
e 36 32
e 38 32
e 39 32
e 36 33
e 38 33
e 39 33
e 37 34
e 36 35
e 37 35
